1x1x3-3L-Na2IrO3                        
   1.00000000000000     
     5.4932947159000003    0.0000000000000000    0.0000000000000000
     0.0000000000000000    9.5097665787000007    0.0000000000000000
    -9.3459178914999992    0.0000000000000000   27.0856790851000007
   Ir   H    Na   O 
     4    12    14    12
Direct
  0.5947446226592348  0.1666996182084972  0.5289280414564530
  0.5947446226592348  0.8333004710996900  0.5289280414564530
  0.0947446450410681  0.6666995884128116  0.5289280414564530
  0.0947446450410681  0.3333003518906638  0.5289280414564530
  0.3615940426760070  0.1666426331615560  0.3919016298389217
  0.3615940426760070  0.8333574561466313  0.3919016298389217
  0.8615940650578330  0.6666426033658703  0.3919016298389217
  0.8615940650578330  0.3333573369376049  0.3919016298389217
  0.8645562839238586 -0.0000000000000000  0.3936629111252051
  0.3645562615420325  0.4999999999631939  0.3936629111252051
  0.8278953040226079  0.1666426331615560  0.6659545126626703
  0.8278953040226079  0.8333574561466313  0.6659545126626703
  0.3278953264044410  0.6666426033658703  0.6659545126626703
  0.3278953264044410  0.3333573369376049  0.6659545126626703
  0.3249331075384155 -0.0000000000000000  0.6641932313763871
  0.8249330851565823  0.4999999999631939  0.6641932313763871
  0.0947446450410681 -0.0000000000000000  0.5289280414564530
  0.5947446226592348  0.4999999999631939  0.5289280414564530
  0.5964821789378976 -0.0000000000000000  0.4298237512915958
  0.5930073048369235 -0.0000000000000000  0.6280323912099963
  0.0964821714651479  0.4999999999631939  0.4298237512915958
  0.0930071186007807  0.4999999999631939  0.6280323912099963
  0.5910367977767772  0.3351545208126717  0.4298092626181929
  0.5984526859617281  0.3351545208126717  0.6280469097146617
  0.5910367977767772  0.6648454494599896  0.4298092626181929
  0.5984526859617281  0.6648454494599896  0.6280469097146617
  0.0910367828403873  0.8351546101576652  0.4298092626181929
  0.0984525071892326  0.8351546101576652  0.6280469097146617
  0.0910367828403873  0.1648454643236554  0.4298092626181929
  0.0984525071892326  0.1648454643236554  0.6280469097146617
  0.8400171300971515  0.1857308505436973  0.4884058619704103
  0.3494723239850260  0.8142691047969506  0.5694502507737583
  0.3494723239850260  0.1857308505436973  0.5694502507737583
  0.8400171300971515  0.8142691047969506  0.4884058619704103
  0.3400171300880500  0.6857307759519657  0.4884058619704103
  0.8494723538487043  0.3142691048337497  0.5694502507737583
  0.8494723538487043  0.6857307759519657  0.5694502507737583
  0.3400171300880500  0.3142691048337497  0.4884058619704103
  0.7922387316835386 -0.0000000000000000  0.5694524826035278
  0.3972504837803555 -0.0000000000000000  0.4884036003093853
  0.2922386721473189  0.4999999999631939  0.5694524826035278
  0.8972504541169155  0.4999999999631939  0.4884036003093853
 
  0.00000000E+00  0.00000000E+00  0.00000000E+00
  0.00000000E+00  0.00000000E+00  0.00000000E+00
  0.00000000E+00  0.00000000E+00  0.00000000E+00
  0.00000000E+00  0.00000000E+00  0.00000000E+00
  0.00000000E+00  0.00000000E+00  0.00000000E+00
  0.00000000E+00  0.00000000E+00  0.00000000E+00
  0.00000000E+00  0.00000000E+00  0.00000000E+00
  0.00000000E+00  0.00000000E+00  0.00000000E+00
  0.00000000E+00  0.00000000E+00  0.00000000E+00
  0.00000000E+00  0.00000000E+00  0.00000000E+00
  0.00000000E+00  0.00000000E+00  0.00000000E+00
  0.00000000E+00  0.00000000E+00  0.00000000E+00
  0.00000000E+00  0.00000000E+00  0.00000000E+00
  0.00000000E+00  0.00000000E+00  0.00000000E+00
  0.00000000E+00  0.00000000E+00  0.00000000E+00
  0.00000000E+00  0.00000000E+00  0.00000000E+00
  0.00000000E+00  0.00000000E+00  0.00000000E+00
  0.00000000E+00  0.00000000E+00  0.00000000E+00
  0.00000000E+00  0.00000000E+00  0.00000000E+00
  0.00000000E+00  0.00000000E+00  0.00000000E+00
  0.00000000E+00  0.00000000E+00  0.00000000E+00
  0.00000000E+00  0.00000000E+00  0.00000000E+00
  0.00000000E+00  0.00000000E+00  0.00000000E+00
  0.00000000E+00  0.00000000E+00  0.00000000E+00
  0.00000000E+00  0.00000000E+00  0.00000000E+00
  0.00000000E+00  0.00000000E+00  0.00000000E+00
  0.00000000E+00  0.00000000E+00  0.00000000E+00
  0.00000000E+00  0.00000000E+00  0.00000000E+00
  0.00000000E+00  0.00000000E+00  0.00000000E+00
  0.00000000E+00  0.00000000E+00  0.00000000E+00
  0.00000000E+00  0.00000000E+00  0.00000000E+00
  0.00000000E+00  0.00000000E+00  0.00000000E+00
  0.00000000E+00  0.00000000E+00  0.00000000E+00
  0.00000000E+00  0.00000000E+00  0.00000000E+00
  0.00000000E+00  0.00000000E+00  0.00000000E+00
  0.00000000E+00  0.00000000E+00  0.00000000E+00
  0.00000000E+00  0.00000000E+00  0.00000000E+00
  0.00000000E+00  0.00000000E+00  0.00000000E+00
  0.00000000E+00  0.00000000E+00  0.00000000E+00
  0.00000000E+00  0.00000000E+00  0.00000000E+00
  0.00000000E+00  0.00000000E+00  0.00000000E+00
  0.00000000E+00  0.00000000E+00  0.00000000E+00
